InstanciasPAB/instancia.demur.10.15.3A.txt
1 1
2 1
3 3
4 5
5 5
6 6
7 8
8 10
9 10	
10 11
e
Bauxita 22
Alumina 24
Manganes 19
Ferro 20
ck 
Bauxita 3
Alumina 3
Manganes 2
Ferro 2
q Bauxita Alumina Manganes Ferro
1	4	0	0	0
2	7	0	0	0
3	2	0	0	0
4	0	12	0	0
5	3	0	0	0
6	0	19	0	0
7	0	0	3	0
8	0	0	0	17
9	0	0	12	0
10	7	0	0	0
